50
    1   269   310
    2   281   338
    3   358   384
    4   177   233
    5   613   554
    6   383   360
    7   145   187
    8   233   290
    9   133    99
   10   528   544
   11   168   186
   12   230   201
   13   470   410
   14   388   418
   15   174   115
   16   570   571
   17    54    27
   18   229   286
   19   483   511
   20    28    44
   21     1     3
   22   157   198
   23   168   218
   24     1    37
   25   269   251
   26   503   518
   27   143   128
   28   359   390
   29   216   252
   30   399   445
   31   476   472
   32   374   426
   33     5    42
   34    88    35
   35   345   370
   36   497   439
   37   208   258
   38   141   195
   39   374   322
   40   407   429
   41   457   493
   42   597   560
   43   395   452
   44   268   228
   45   383   381
   46    82    25
   47   434   384
   48   378   352
   49   287   285
   50   153   206
601
